p cnf 430 1488
-191 64 0
-191 35 0
-191 146 0
-191 -167 0
-191 -66 0
191 -64 -35 -146 167 66 0
-192 -32 0
-192 -176 0
-192 -138 0
-192 -180 0
-192 22 0
192 32 176 138 180 -22 0
-193 158 0
-193 -113 0
-193 49 0
-193 151 0
-193 -131 0
193 -158 113 -49 -151 131 0
-194 -66 0
-194 181 0
-194 -65 0
-194 39 0
-194 30 0
194 66 -181 65 -39 -30 0
-195 102 0
-195 175 0
-195 95 0
-195 38 0
-195 -120 0
195 -102 -175 -95 -38 120 0
191 192 193 194 195 0
-196 174 0
-196 109 0
-196 35 0
-196 -34 0
-196 -165 0
196 -174 -109 -35 34 165 0
-197 -63 0
-197 -130 0
-197 -188 0
-197 -8 0
-197 -42 0
197 63 130 188 8 42 0
-198 134 0
-198 84 0
-198 172 0
-198 12 0
-198 -108 0
198 -134 -84 -172 -12 108 0
-199 84 0
-199 173 0
-199 176 0
-199 52 0
-199 11 0
199 -84 -173 -176 -52 -11 0
-200 -98 0
-200 144 0
-200 -87 0
-200 28 0
-200 -112 0
200 98 -144 87 -28 112 0
196 197 198 199 200 0
-201 186 0
-201 -100 0
-201 8 0
-201 -145 0
-201 -93 0
201 -186 100 -8 145 93 0
-202 -103 0
-202 124 0
-202 -57 0
-202 -1 0
-202 134 0
202 103 -124 57 1 -134 0
-203 71 0
-203 -102 0
-203 147 0
-203 73 0
-203 -60 0
203 -71 102 -147 -73 60 0
-204 99 0
-204 -140 0
-204 -121 0
-204 94 0
-204 80 0
204 -99 140 121 -94 -80 0
-205 -28 0
-205 124 0
-205 80 0
-205 -68 0
-205 135 0
205 28 -124 -80 68 -135 0
201 202 203 204 205 0
-206 -103 0
-206 -43 0
-206 37 0
-206 80 0
-206 -59 0
206 103 43 -37 -80 59 0
-207 150 0
-207 129 0
-207 8 0
-207 130 0
-207 146 0
207 -150 -129 -8 -130 -146 0
-208 -175 0
-208 -37 0
-208 -80 0
-208 149 0
-208 -8 0
208 175 37 80 -149 8 0
-209 -104 0
-209 79 0
-209 187 0
-209 67 0
-209 -14 0
209 104 -79 -187 -67 14 0
-210 -161 0
-210 50 0
-210 166 0
-210 75 0
-210 -126 0
210 161 -50 -166 -75 126 0
206 207 208 209 210 0
-211 -36 0
-211 92 0
-211 134 0
-211 130 0
-211 -160 0
211 36 -92 -134 -130 160 0
-212 159 0
-212 181 0
-212 37 0
-212 -57 0
-212 106 0
212 -159 -181 -37 57 -106 0
-213 128 0
-213 -108 0
-213 -52 0
-213 24 0
-213 -49 0
213 -128 108 52 -24 49 0
-214 152 0
-214 -103 0
-214 -65 0
-214 129 0
-214 -169 0
214 -152 103 65 -129 169 0
-215 -117 0
-215 -32 0
-215 21 0
-215 77 0
-215 -114 0
215 117 32 -21 -77 114 0
211 212 213 214 215 0
-216 178 0
-216 157 0
-216 -132 0
-216 -161 0
-216 84 0
216 -178 -157 132 161 -84 0
-217 122 0
-217 9 0
-217 -133 0
-217 164 0
-217 -88 0
217 -122 -9 133 -164 88 0
-218 -134 0
-218 116 0
-218 17 0
-218 -190 0
-218 -95 0
218 134 -116 -17 190 95 0
-219 94 0
-219 -100 0
-219 12 0
-219 -120 0
-219 -14 0
219 -94 100 -12 120 14 0
-220 -38 0
-220 188 0
-220 -166 0
-220 48 0
-220 159 0
220 38 -188 166 -48 -159 0
216 217 218 219 220 0
-221 188 0
-221 -96 0
-221 -38 0
-221 -135 0
-221 -147 0
221 -188 96 38 135 147 0
-222 -48 0
-222 -160 0
-222 -85 0
-222 -79 0
-222 137 0
222 48 160 85 79 -137 0
-223 181 0
-223 115 0
-223 -5 0
-223 17 0
-223 135 0
223 -181 -115 5 -17 -135 0
-224 22 0
-224 153 0
-224 -113 0
-224 100 0
-224 38 0
224 -22 -153 113 -100 -38 0
-225 164 0
-225 -135 0
-225 35 0
-225 3 0
-225 106 0
225 -164 135 -35 -3 -106 0
221 222 223 224 225 0
-226 134 0
-226 -13 0
-226 127 0
-226 101 0
-226 -75 0
226 -134 13 -127 -101 75 0
-227 -29 0
-227 -190 0
-227 36 0
-227 -96 0
-227 -154 0
227 29 190 -36 96 154 0
-228 11 0
-228 7 0
-228 25 0
-228 -182 0
-228 27 0
228 -11 -7 -25 182 -27 0
-229 -181 0
-229 150 0
-229 136 0
-229 -141 0
-229 -25 0
229 181 -150 -136 141 25 0
-230 14 0
-230 174 0
-230 145 0
-230 72 0
-230 169 0
230 -14 -174 -145 -72 -169 0
226 227 228 229 230 0
-231 -163 0
-231 -21 0
-231 -94 0
-231 155 0
-231 149 0
231 163 21 94 -155 -149 0
-232 -143 0
-232 112 0
-232 -149 0
-232 72 0
-232 170 0
232 143 -112 149 -72 -170 0
-233 -33 0
-233 -89 0
-233 178 0
-233 91 0
-233 -170 0
233 33 89 -178 -91 170 0
-234 122 0
-234 -133 0
-234 190 0
-234 -50 0
-234 -152 0
234 -122 133 -190 50 152 0
-235 169 0
-235 119 0
-235 -105 0
-235 -162 0
-235 178 0
235 -169 -119 105 162 -178 0
231 232 233 234 235 0
-236 109 0
-236 61 0
-236 -183 0
-236 40 0
-236 -17 0
236 -109 -61 183 -40 17 0
-237 -120 0
-237 -180 0
-237 -127 0
-237 -187 0
-237 -113 0
237 120 180 127 187 113 0
-238 -12 0
-238 6 0
-238 -54 0
-238 -44 0
-238 -17 0
238 12 -6 54 44 17 0
-239 98 0
-239 -182 0
-239 -45 0
-239 137 0
-239 84 0
239 -98 182 45 -137 -84 0
-240 -1 0
-240 -9 0
-240 4 0
-240 -134 0
-240 126 0
240 1 9 -4 134 -126 0
236 237 238 239 240 0
-241 8 0
-241 54 0
-241 -58 0
-241 45 0
-241 -19 0
241 -8 -54 58 -45 19 0
-242 137 0
-242 66 0
-242 130 0
-242 33 0
-242 94 0
242 -137 -66 -130 -33 -94 0
-243 -115 0
-243 -97 0
-243 27 0
-243 -177 0
-243 72 0
243 115 97 -27 177 -72 0
-244 100 0
-244 -167 0
-244 -142 0
-244 161 0
-244 99 0
244 -100 167 142 -161 -99 0
-245 151 0
-245 -107 0
-245 75 0
-245 140 0
-245 79 0
245 -151 107 -75 -140 -79 0
241 242 243 244 245 0
-246 22 0
-246 -9 0
-246 -76 0
-246 119 0
-246 -40 0
246 -22 9 76 -119 40 0
-247 166 0
-247 16 0
-247 86 0
-247 64 0
-247 -63 0
247 -166 -16 -86 -64 63 0
-248 -110 0
-248 174 0
-248 -97 0
-248 -168 0
-248 -149 0
248 110 -174 97 168 149 0
-249 159 0
-249 -179 0
-249 32 0
-249 99 0
-249 -173 0
249 -159 179 -32 -99 173 0
-250 183 0
-250 -104 0
-250 -38 0
-250 -56 0
-250 -2 0
250 -183 104 38 56 2 0
246 247 248 249 250 0
-251 77 0
-251 -89 0
-251 -168 0
-251 61 0
-251 101 0
251 -77 89 168 -61 -101 0
-252 -80 0
-252 -69 0
-252 17 0
-252 -65 0
-252 -128 0
252 80 69 -17 65 128 0
-253 110 0
-253 -43 0
-253 19 0
-253 77 0
-253 -140 0
253 -110 43 -19 -77 140 0
-254 188 0
-254 -155 0
-254 -32 0
-254 70 0
-254 186 0
254 -188 155 32 -70 -186 0
-255 -166 0
-255 -44 0
-255 95 0
-255 153 0
-255 65 0
255 166 44 -95 -153 -65 0
251 252 253 254 255 0
-256 9 0
-256 124 0
-256 1 0
-256 -60 0
-256 84 0
256 -9 -124 -1 60 -84 0
-257 -182 0
-257 -152 0
-257 -65 0
-257 -156 0
-257 -122 0
257 182 152 65 156 122 0
-258 -98 0
-258 29 0
-258 -68 0
-258 19 0
-258 134 0
258 98 -29 68 -19 -134 0
-259 -188 0
-259 -167 0
-259 97 0
-259 -29 0
-259 -145 0
259 188 167 -97 29 145 0
-260 6 0
-260 86 0
-260 24 0
-260 159 0
-260 183 0
260 -6 -86 -24 -159 -183 0
256 257 258 259 260 0
-261 -6 0
-261 10 0
-261 103 0
-261 -71 0
-261 104 0
261 6 -10 -103 71 -104 0
-262 -136 0
-262 -65 0
-262 -97 0
-262 2 0
-262 -134 0
262 136 65 97 -2 134 0
-263 135 0
-263 95 0
-263 157 0
-263 -30 0
-263 28 0
263 -135 -95 -157 30 -28 0
-264 -44 0
-264 33 0
-264 -52 0
-264 -177 0
-264 126 0
264 44 -33 52 177 -126 0
-265 128 0
-265 31 0
-265 -4 0
-265 160 0
-265 75 0
265 -128 -31 4 -160 -75 0
261 262 263 264 265 0
-266 -28 0
-266 -82 0
-266 137 0
-266 -113 0
-266 -44 0
266 28 82 -137 113 44 0
-267 -139 0
-267 96 0
-267 -94 0
-267 -105 0
-267 -176 0
267 139 -96 94 105 176 0
-268 -27 0
-268 -151 0
-268 -171 0
-268 -127 0
-268 -98 0
268 27 151 171 127 98 0
-269 -151 0
-269 -35 0
-269 48 0
-269 -123 0
-269 56 0
269 151 35 -48 123 -56 0
-270 -155 0
-270 93 0
-270 16 0
-270 -121 0
-270 -15 0
270 155 -93 -16 121 15 0
266 267 268 269 270 0
-271 -102 0
-271 -185 0
-271 143 0
-271 -69 0
-271 2 0
271 102 185 -143 69 -2 0
-272 -16 0
-272 -188 0
-272 160 0
-272 -167 0
-272 -184 0
272 16 188 -160 167 184 0
-273 -179 0
-273 15 0
-273 157 0
-273 -155 0
-273 -32 0
273 179 -15 -157 155 32 0
-274 -34 0
-274 9 0
-274 -110 0
-274 107 0
-274 117 0
274 34 -9 110 -107 -117 0
-275 5 0
-275 176 0
-275 184 0
-275 129 0
-275 113 0
275 -5 -176 -184 -129 -113 0
271 272 273 274 275 0
-276 41 0
-276 27 0
-276 -15 0
-276 -97 0
-276 -30 0
276 -41 -27 15 97 30 0
-277 -118 0
-277 -100 0
-277 -99 0
-277 135 0
-277 -166 0
277 118 100 99 -135 166 0
-278 -2 0
-278 -46 0
-278 -103 0
-278 -190 0
-278 45 0
278 2 46 103 190 -45 0
-279 -44 0
-279 165 0
-279 40 0
-279 -91 0
-279 140 0
279 44 -165 -40 91 -140 0
-280 152 0
-280 166 0
-280 -11 0
-280 110 0
-280 146 0
280 -152 -166 11 -110 -146 0
276 277 278 279 280 0
-281 -140 0
-281 44 0
-281 -117 0
-281 -53 0
-281 119 0
281 140 -44 117 53 -119 0
-282 -22 0
-282 179 0
-282 128 0
-282 2 0
-282 -34 0
282 22 -179 -128 -2 34 0
-283 -178 0
-283 -31 0
-283 -172 0
-283 -171 0
-283 -34 0
283 178 31 172 171 34 0
-284 -124 0
-284 24 0
-284 -184 0
-284 18 0
-284 -137 0
284 124 -24 184 -18 137 0
-285 45 0
-285 164 0
-285 -49 0
-285 -136 0
-285 100 0
285 -45 -164 49 136 -100 0
281 282 283 284 285 0
-286 34 0
-286 148 0
-286 81 0
-286 -146 0
-286 -80 0
286 -34 -148 -81 146 80 0
-287 -156 0
-287 94 0
-287 -34 0
-287 182 0
-287 -47 0
287 156 -94 34 -182 47 0
-288 -120 0
-288 -66 0
-288 -175 0
-288 179 0
-288 -172 0
288 120 66 175 -179 172 0
-289 -86 0
-289 -189 0
-289 103 0
-289 -11 0
-289 -16 0
289 86 189 -103 11 16 0
-290 136 0
-290 32 0
-290 57 0
-290 56 0
-290 -118 0
290 -136 -32 -57 -56 118 0
286 287 288 289 290 0
-291 89 0
-291 23 0
-291 -121 0
-291 -171 0
-291 43 0
291 -89 -23 121 171 -43 0
-292 -16 0
-292 -90 0
-292 153 0
-292 -109 0
-292 -55 0
292 16 90 -153 109 55 0
-293 35 0
-293 163 0
-293 -107 0
-293 94 0
-293 175 0
293 -35 -163 107 -94 -175 0
-294 -138 0
-294 -78 0
-294 39 0
-294 -46 0
-294 166 0
294 138 78 -39 46 -166 0
-295 -147 0
-295 5 0
-295 34 0
-295 -15 0
-295 115 0
295 147 -5 -34 15 -115 0
291 292 293 294 295 0
-296 -95 0
-296 -128 0
-296 99 0
-296 -14 0
-296 -66 0
296 95 128 -99 14 66 0
-297 43 0
-297 86 0
-297 -87 0
-297 -129 0
-297 16 0
297 -43 -86 87 129 -16 0
-298 -18 0
-298 -177 0
-298 -43 0
-298 46 0
-298 108 0
298 18 177 43 -46 -108 0
-299 37 0
-299 -130 0
-299 -165 0
-299 64 0
-299 -57 0
299 -37 130 165 -64 57 0
-300 -74 0
-300 65 0
-300 16 0
-300 43 0
-300 84 0
300 74 -65 -16 -43 -84 0
296 297 298 299 300 0
-301 125 0
-301 128 0
-301 -66 0
-301 -77 0
-301 95 0
301 -125 -128 66 77 -95 0
-302 -117 0
-302 -14 0
-302 60 0
-302 -82 0
-302 -38 0
302 117 14 -60 82 38 0
-303 159 0
-303 -43 0
-303 127 0
-303 -26 0
-303 -176 0
303 -159 43 -127 26 176 0
-304 3 0
-304 37 0
-304 -26 0
-304 -167 0
-304 -173 0
304 -3 -37 26 167 173 0
-305 174 0
-305 -177 0
-305 -103 0
-305 152 0
-305 -7 0
305 -174 177 103 -152 7 0
301 302 303 304 305 0
-306 60 0
-306 -78 0
-306 87 0
-306 32 0
-306 -58 0
306 -60 78 -87 -32 58 0
-307 175 0
-307 49 0
-307 87 0
-307 118 0
-307 -184 0
307 -175 -49 -87 -118 184 0
-308 -96 0
-308 -109 0
-308 -34 0
-308 163 0
-308 -64 0
308 96 109 34 -163 64 0
-309 164 0
-309 85 0
-309 -145 0
-309 -63 0
-309 -189 0
309 -164 -85 145 63 189 0
-310 -66 0
-310 52 0
-310 -74 0
-310 87 0
-310 -106 0
310 66 -52 74 -87 106 0
306 307 308 309 310 0
-311 -181 0
-311 88 0
-311 111 0
-311 145 0
-311 -150 0
311 181 -88 -111 -145 150 0
-312 -147 0
-312 -96 0
-312 -13 0
-312 95 0
-312 75 0
312 147 96 13 -95 -75 0
-313 58 0
-313 52 0
-313 -45 0
-313 17 0
-313 182 0
313 -58 -52 45 -17 -182 0
-314 -188 0
-314 -175 0
-314 145 0
-314 -102 0
-314 106 0
314 188 175 -145 102 -106 0
-315 83 0
-315 -78 0
-315 -61 0
-315 27 0
-315 -8 0
315 -83 78 61 -27 8 0
311 312 313 314 315 0
-316 -111 0
-316 -98 0
-316 -78 0
-316 -36 0
-316 -120 0
316 111 98 78 36 120 0
-317 -177 0
-317 -69 0
-317 146 0
-317 -138 0
-317 -76 0
317 177 69 -146 138 76 0
-318 34 0
-318 -146 0
-318 121 0
-318 111 0
-318 -63 0
318 -34 146 -121 -111 63 0
-319 -179 0
-319 -184 0
-319 -102 0
-319 -19 0
-319 44 0
319 179 184 102 19 -44 0
-320 6 0
-320 -15 0
-320 47 0
-320 57 0
-320 -127 0
320 -6 15 -47 -57 127 0
316 317 318 319 320 0
-321 -54 0
-321 136 0
-321 -33 0
-321 -68 0
-321 119 0
321 54 -136 33 68 -119 0
-322 172 0
-322 -165 0
-322 62 0
-322 154 0
-322 -185 0
322 -172 165 -62 -154 185 0
-323 82 0
-323 -114 0
-323 76 0
-323 38 0
-323 -154 0
323 -82 114 -76 -38 154 0
-324 104 0
-324 -30 0
-324 -137 0
-324 -10 0
-324 183 0
324 -104 30 137 10 -183 0
-325 -25 0
-325 -47 0
-325 109 0
-325 76 0
-325 -156 0
325 25 47 -109 -76 156 0
321 322 323 324 325 0
-326 8 0
-326 156 0
-326 -100 0
-326 -126 0
-326 107 0
326 -8 -156 100 126 -107 0
-327 97 0
-327 184 0
-327 37 0
-327 90 0
-327 -126 0
327 -97 -184 -37 -90 126 0
-328 -8 0
-328 -106 0
-328 -25 0
-328 83 0
-328 -115 0
328 8 106 25 -83 115 0
-329 -98 0
-329 -131 0
-329 -96 0
-329 66 0
-329 -104 0
329 98 131 96 -66 104 0
-330 173 0
-330 -77 0
-330 129 0
-330 -170 0
-330 -186 0
330 -173 77 -129 170 186 0
326 327 328 329 330 0
-331 -80 0
-331 185 0
-331 23 0
-331 77 0
-331 177 0
331 80 -185 -23 -77 -177 0
-332 -131 0
-332 -162 0
-332 -167 0
-332 5 0
-332 156 0
332 131 162 167 -5 -156 0
-333 -141 0
-333 157 0
-333 15 0
-333 -64 0
-333 95 0
333 141 -157 -15 64 -95 0
-334 11 0
-334 76 0
-334 124 0
-334 46 0
-334 -44 0
334 -11 -76 -124 -46 44 0
-335 141 0
-335 100 0
-335 -30 0
-335 -77 0
-335 184 0
335 -141 -100 30 77 -184 0
331 332 333 334 335 0
-336 -172 0
-336 44 0
-336 -181 0
-336 -56 0
-336 29 0
336 172 -44 181 56 -29 0
-337 109 0
-337 168 0
-337 48 0
-337 -169 0
-337 155 0
337 -109 -168 -48 169 -155 0
-338 -13 0
-338 -139 0
-338 50 0
-338 55 0
-338 -148 0
338 13 139 -50 -55 148 0
-339 -42 0
-339 175 0
-339 183 0
-339 170 0
-339 -15 0
339 42 -175 -183 -170 15 0
-340 16 0
-340 162 0
-340 3 0
-340 -183 0
-340 -126 0
340 -16 -162 -3 183 126 0
336 337 338 339 340 0
-341 -181 0
-341 -33 0
-341 32 0
-341 109 0
-341 -36 0
341 181 33 -32 -109 36 0
-342 35 0
-342 -92 0
-342 -174 0
-342 -40 0
-342 -66 0
342 -35 92 174 40 66 0
-343 -125 0
-343 23 0
-343 -169 0
-343 69 0
-343 164 0
343 125 -23 169 -69 -164 0
-344 33 0
-344 139 0
-344 87 0
-344 130 0
-344 -91 0
344 -33 -139 -87 -130 91 0
-345 67 0
-345 -105 0
-345 -187 0
-345 -165 0
-345 -166 0
345 -67 105 187 165 166 0
341 342 343 344 345 0
-346 -160 0
-346 -2 0
-346 -127 0
-346 33 0
-346 -54 0
346 160 2 127 -33 54 0
-347 -126 0
-347 113 0
-347 -61 0
-347 -116 0
-347 -49 0
347 126 -113 61 116 49 0
-348 -48 0
-348 161 0
-348 -58 0
-348 71 0
-348 64 0
348 48 -161 58 -71 -64 0
-349 172 0
-349 169 0
-349 -112 0
-349 -26 0
-349 77 0
349 -172 -169 112 26 -77 0
-350 180 0
-350 75 0
-350 -5 0
-350 19 0
-350 -84 0
350 -180 -75 5 -19 84 0
346 347 348 349 350 0
-351 167 0
-351 -105 0
-351 131 0
-351 -135 0
-351 -116 0
351 -167 105 -131 135 116 0
-352 66 0
-352 -62 0
-352 77 0
-352 27 0
-352 -25 0
352 -66 62 -77 -27 25 0
-353 -19 0
-353 155 0
-353 160 0
-353 101 0
-353 25 0
353 19 -155 -160 -101 -25 0
-354 189 0
-354 -69 0
-354 -138 0
-354 -118 0
-354 113 0
354 -189 69 138 118 -113 0
-355 -111 0
-355 -134 0
-355 13 0
-355 61 0
-355 -63 0
355 111 134 -13 -61 63 0
351 352 353 354 355 0
-356 142 0
-356 94 0
-356 -133 0
-356 138 0
-356 101 0
356 -142 -94 133 -138 -101 0
-357 -42 0
-357 -25 0
-357 56 0
-357 -22 0
-357 164 0
357 42 25 -56 22 -164 0
-358 -177 0
-358 58 0
-358 -151 0
-358 -162 0
-358 126 0
358 177 -58 151 162 -126 0
-359 53 0
-359 -187 0
-359 -162 0
-359 173 0
-359 -150 0
359 -53 187 162 -173 150 0
-360 126 0
-360 -73 0
-360 -36 0
-360 75 0
-360 189 0
360 -126 73 36 -75 -189 0
356 357 358 359 360 0
-361 55 0
-361 134 0
-361 -99 0
-361 179 0
-361 8 0
361 -55 -134 99 -179 -8 0
-362 179 0
-362 125 0
-362 43 0
-362 171 0
-362 -64 0
362 -179 -125 -43 -171 64 0
-363 -130 0
-363 -81 0
-363 -35 0
-363 -7 0
-363 -179 0
363 130 81 35 7 179 0
-364 -143 0
-364 -69 0
-364 85 0
-364 86 0
-364 -115 0
364 143 69 -85 -86 115 0
-365 49 0
-365 190 0
-365 24 0
-365 160 0
-365 -127 0
365 -49 -190 -24 -160 127 0
361 362 363 364 365 0
-366 -186 0
-366 -143 0
-366 153 0
-366 -158 0
-366 -137 0
366 186 143 -153 158 137 0
-367 -188 0
-367 12 0
-367 166 0
-367 -125 0
-367 38 0
367 188 -12 -166 125 -38 0
-368 -26 0
-368 120 0
-368 -79 0
-368 150 0
-368 82 0
368 26 -120 79 -150 -82 0
-369 -102 0
-369 69 0
-369 -175 0
-369 -53 0
-369 -52 0
369 102 -69 175 53 52 0
-370 -22 0
-370 -181 0
-370 36 0
-370 146 0
-370 -68 0
370 22 181 -36 -146 68 0
366 367 368 369 370 0
-371 188 0
-371 -54 0
-371 -123 0
-371 26 0
-371 -175 0
371 -188 54 123 -26 175 0
-372 -51 0
-372 -38 0
-372 133 0
-372 59 0
-372 -74 0
372 51 38 -133 -59 74 0
-373 -49 0
-373 75 0
-373 -54 0
-373 -53 0
-373 -17 0
373 49 -75 54 53 17 0
-374 -188 0
-374 -63 0
-374 187 0
-374 190 0
-374 -15 0
374 188 63 -187 -190 15 0
-375 -96 0
-375 -69 0
-375 -189 0
-375 166 0
-375 55 0
375 96 69 189 -166 -55 0
371 372 373 374 375 0
-376 -19 0
-376 -139 0
-376 46 0
-376 -106 0
-376 85 0
376 19 139 -46 106 -85 0
-377 -173 0
-377 -149 0
-377 102 0
-377 -71 0
-377 -61 0
377 173 149 -102 71 61 0
-378 -78 0
-378 -38 0
-378 -172 0
-378 -169 0
-378 132 0
378 78 38 172 169 -132 0
-379 -106 0
-379 -12 0
-379 28 0
-379 -142 0
-379 13 0
379 106 12 -28 142 -13 0
-380 -120 0
-380 66 0
-380 79 0
-380 136 0
-380 -37 0
380 120 -66 -79 -136 37 0
376 377 378 379 380 0
-381 125 0
-381 176 0
-381 -13 0
-381 139 0
-381 99 0
381 -125 -176 13 -139 -99 0
-382 44 0
-382 -50 0
-382 8 0
-382 153 0
-382 61 0
382 -44 50 -8 -153 -61 0
-383 -29 0
-383 122 0
-383 -9 0
-383 88 0
-383 -11 0
383 29 -122 9 -88 11 0
-384 167 0
-384 46 0
-384 -156 0
-384 -170 0
-384 -26 0
384 -167 -46 156 170 26 0
-385 8 0
-385 -160 0
-385 -13 0
-385 152 0
-385 -147 0
385 -8 160 13 -152 147 0
381 382 383 384 385 0
-386 -27 0
-386 121 0
-386 190 0
-386 178 0
-386 25 0
386 27 -121 -190 -178 -25 0
-387 -58 0
-387 -37 0
-387 -77 0
-387 8 0
-387 21 0
387 58 37 77 -8 -21 0
-388 -25 0
-388 100 0
-388 -59 0
-388 2 0
-388 -79 0
388 25 -100 59 -2 79 0
-389 -168 0
-389 169 0
-389 -78 0
-389 -89 0
-389 83 0
389 168 -169 78 89 -83 0
-390 96 0
-390 -33 0
-390 -118 0
-390 -160 0
-390 162 0
390 -96 33 118 160 -162 0
386 387 388 389 390 0
-391 152 0
-391 35 0
-391 180 0
-391 153 0
-391 -110 0
391 -152 -35 -180 -153 110 0
-392 108 0
-392 -179 0
-392 -112 0
-392 116 0
-392 70 0
392 -108 179 112 -116 -70 0
-393 -131 0
-393 68 0
-393 73 0
-393 -124 0
-393 177 0
393 131 -68 -73 124 -177 0
-394 109 0
-394 -80 0
-394 -97 0
-394 54 0
-394 -50 0
394 -109 80 97 -54 50 0
-395 11 0
-395 -75 0
-395 145 0
-395 154 0
-395 118 0
395 -11 75 -145 -154 -118 0
391 392 393 394 395 0
-396 -179 0
-396 -133 0
-396 120 0
-396 76 0
-396 176 0
396 179 133 -120 -76 -176 0
-397 -35 0
-397 -140 0
-397 -90 0
-397 115 0
-397 104 0
397 35 140 90 -115 -104 0
-398 151 0
-398 -123 0
-398 60 0
-398 -70 0
-398 162 0
398 -151 123 -60 70 -162 0
-399 -45 0
-399 35 0
-399 95 0
-399 67 0
-399 16 0
399 45 -35 -95 -67 -16 0
-400 136 0
-400 -142 0
-400 -137 0
-400 126 0
-400 -43 0
400 -136 142 137 -126 43 0
396 397 398 399 400 0
-401 -137 0
-401 86 0
-401 20 0
-401 -166 0
-401 -158 0
401 137 -86 -20 166 158 0
-402 76 0
-402 -47 0
-402 -51 0
-402 -35 0
-402 112 0
402 -76 47 51 35 -112 0
-403 62 0
-403 1 0
-403 -75 0
-403 54 0
-403 48 0
403 -62 -1 75 -54 -48 0
-404 -43 0
-404 -114 0
-404 74 0
-404 -67 0
-404 -125 0
404 43 114 -74 67 125 0
-405 28 0
-405 -178 0
-405 -186 0
-405 -135 0
-405 24 0
405 -28 178 186 135 -24 0
401 402 403 404 405 0
-406 -179 0
-406 -98 0
-406 141 0
-406 180 0
-406 148 0
406 179 98 -141 -180 -148 0
-407 62 0
-407 12 0
-407 27 0
-407 180 0
-407 -33 0
407 -62 -12 -27 -180 33 0
-408 44 0
-408 75 0
-408 91 0
-408 53 0
-408 135 0
408 -44 -75 -91 -53 -135 0
-409 -37 0
-409 88 0
-409 -92 0
-409 123 0
-409 148 0
409 37 -88 92 -123 -148 0
-410 104 0
-410 -77 0
-410 -59 0
-410 21 0
-410 133 0
410 -104 77 59 -21 -133 0
406 407 408 409 410 0
-411 -76 0
-411 80 0
-411 -149 0
-411 -61 0
-411 99 0
411 76 -80 149 61 -99 0
-412 41 0
-412 106 0
-412 -176 0
-412 -138 0
-412 55 0
412 -41 -106 176 138 -55 0
-413 -42 0
-413 21 0
-413 154 0
-413 55 0
-413 -163 0
413 42 -21 -154 -55 163 0
-414 -166 0
-414 -122 0
-414 55 0
-414 -105 0
-414 164 0
414 166 122 -55 105 -164 0
-415 -110 0
-415 -123 0
-415 100 0
-415 33 0
-415 46 0
415 110 123 -100 -33 -46 0
411 412 413 414 415 0
-416 74 0
-416 -37 0
-416 -164 0
-416 -15 0
-416 168 0
416 -74 37 164 15 -168 0
-417 -161 0
-417 -123 0
-417 189 0
-417 163 0
-417 -45 0
417 161 123 -189 -163 45 0
-418 12 0
-418 -71 0
-418 -110 0
-418 127 0
-418 45 0
418 -12 71 110 -127 -45 0
-419 62 0
-419 -77 0
-419 -105 0
-419 150 0
-419 -116 0
419 -62 77 105 -150 116 0
-420 -136 0
-420 -163 0
-420 133 0
-420 -181 0
-420 -27 0
420 136 163 -133 181 27 0
416 417 418 419 420 0
-421 178 0
-421 124 0
-421 -131 0
-421 91 0
-421 78 0
421 -178 -124 131 -91 -78 0
-422 44 0
-422 27 0
-422 -110 0
-422 134 0
-422 80 0
422 -44 -27 110 -134 -80 0
-423 79 0
-423 -14 0
-423 44 0
-423 102 0
-423 -23 0
423 -79 14 -44 -102 23 0
-424 -137 0
-424 150 0
-424 -50 0
-424 -74 0
-424 22 0
424 137 -150 50 74 -22 0
-425 116 0
-425 6 0
-425 -9 0
-425 138 0
-425 108 0
425 -116 -6 9 -138 -108 0
421 422 423 424 425 0
-426 61 0
-426 120 0
-426 -141 0
-426 -5 0
-426 54 0
426 -61 -120 141 5 -54 0
-427 183 0
-427 -9 0
-427 -104 0
-427 -30 0
-427 -159 0
427 -183 9 104 30 159 0
-428 106 0
-428 124 0
-428 172 0
-428 -23 0
-428 157 0
428 -106 -124 -172 23 -157 0
-429 -82 0
-429 -36 0
-429 44 0
-429 -139 0
-429 49 0
429 82 36 -44 139 -49 0
-430 18 0
-430 -151 0
-430 -77 0
-430 -73 0
-430 -148 0
430 -18 151 77 73 148 0
426 427 428 429 430 0
